\* Problem: Unknown *\

Maximize
 obj: + xp_0_0 + xp_1_0 + xp_1_1 + xp_2_0 + xp_3_0 + xp_3_1 + xp_4_0
 + xp_5_0 + xp_6_0 + xp_7_0 + xp_8_0 + xp_9_0 + xp_9_1 + xp_10_0
 + xp_11_0 + xp_11_1 + xp_12_0 + xp_13_0 + xp_13_1 + xp_14_0 + xp_14_1
 + xp_15_0 + xp_16_0 + xp_17_0 + xp_17_1 + xp_18_0 + xp_18_1 + xp_19_0
 + xp_19_1 + xp_20_0 + xp_21_0 + xp_22_0 + xp_22_1 + xp_23_0 + xp_24_0
 + xp_24_1 + xp_25_0 + xp_26_0 + xp_27_0 + xp_28_0 + xp_28_1 + xp_29_0
 + xp_30_0 + xp_31_0 + xp_32_0 + xp_33_0 + xp_34_0 + xp_34_1 + xp_35_0
 + xp_36_0 + xp_37_0 + xp_38_0 + xp_39_0 + xp_40_0 + xp_40_1 + xp_40_2
 + xp_41_0 + xp_42_0 + xp_42_1 + xp_42_2 + xp_43_0 + xp_44_0 + xp_45_0
 + xp_46_0 + xp_47_0 + xp_48_0 + xp_48_1 + xp_49_0 + xp_50_0 + xp_50_1
 + xp_51_0 + xp_52_0 + xp_53_0 + xp_54_0 + xp_55_0 + xp_56_0 + xp_57_0
 + xp_57_1 + xp_58_0 + xp_58_1 + xp_59_0 + xp_60_0 + xp_60_1 + xp_61_0
 + xp_61_1 + xp_62_0 + xp_63_0 + xp_63_1 + xp_64_0 + xp_65_0 + xp_65_1
 + xp_66_0 + xp_67_0 + xp_67_1 + xp_68_0 + xp_68_1 + xp_69_0 + xp_70_0
 + xp_71_0 + xp_72_0 + xp_73_0 + xp_74_0 + xp_75_0 + xp_76_0 + xp_77_0
 + xp_77_1 + xp_78_0 + xp_78_1 + xp_78_2 + xp_78_3 + xp_79_0 + xp_79_1
 + xp_80_0 + xp_80_1 + xp_81_0 + xp_81_1 + xp_82_0 + xp_83_0 + xp_84_0
 + xp_85_0 + xp_86_0 + xp_86_1 + xp_87_0 + xp_88_0 + xp_89_0 + xp_90_0
 + xp_90_1 + xp_90_2 + xp_91_0 + xp_91_1 + xp_92_0 + xp_93_0 + xp_94_0
 + xp_95_0 + xp_96_0 + xp_97_0 + xp_98_0 + xp_98_1 + xp_99_0 + xp_100_0
 + xp_101_0 + xp_102_0 + xp_103_0 + xp_104_0 + xp_105_0 + xp_105_1
 + xp_106_0 + xp_107_0 + xp_108_0 + xp_108_1 + xp_108_2 + xp_109_0
 + xp_109_1 + xp_110_0 + xp_111_0 + xp_111_1 + xp_112_0 + xp_112_1
 + xp_112_2 + xp_113_0 + xp_114_0 + xp_115_0 + xp_115_1 + xp_116_0
 + xp_116_1 + xp_117_0 + xp_118_0 + xp_119_0 + xp_120_0 + xp_120_1
 + xp_120_2 + xp_121_0 + xp_122_0 + xp_123_0 + xp_124_0 + xp_125_0
 + xp_125_1 + xp_126_0 + xp_126_1 + xp_126_2 + xp_126_3 + xp_127_0
 + xp_127_1 + xp_128_0 + xp_128_1 + xp_129_0 + xp_129_1 + xp_130_0
 + xp_131_0 + xp_131_1 + xp_131_2

Subject To
 r_1: + xp_128_1 + xp_122_0 + xp_121_0 + xp_108_2 + xp_107_0 + xp_78_3
 + xp_67_1 + xp_57_1 + xp_40_2 + xp_40_1 + xp_25_0 + xp_22_1 + xp_18_0
 + xp_16_0 + xp_13_1 + xp_4_0 <= 38394.8497854077
 r_2: + xp_131_2 + xp_131_1 + xp_127_1 + xp_126_3 + xp_126_1 + xp_120_2
 + xp_120_0 + xp_93_0 + xp_90_1 + xp_85_0 + xp_77_1 + xp_75_0 + xp_71_0
 + xp_66_0 + xp_65_1 + xp_65_0 + xp_61_1 + xp_55_0 + xp_52_0 + xp_48_1
 + xp_48_0 + xp_42_2 + xp_42_1 + xp_32_0 + xp_28_1 + xp_28_0 + xp_24_0
 + xp_19_1 + xp_19_0 + xp_1_1 <= 35421.6335540839
 r_3: + xp_126_3 + xp_114_0 + xp_105_1 + xp_95_0 + xp_76_0 + xp_58_1
 + xp_48_1 + xp_34_0 <= 40000
 r_4: + xp_117_0 + xp_112_2 + xp_91_1 + xp_91_0 + xp_84_0 + xp_79_1
 + xp_79_0 + xp_46_0 + xp_43_0 + xp_40_2 + xp_40_1 + xp_40_0 + xp_34_1
 <= 37505.502567865
 r_5: + xp_130_0 + xp_112_2 + xp_99_0 + xp_86_0 + xp_7_0 + xp_2_0
 <= 40000
 r_6: + xp_126_3 + xp_126_2 + xp_119_0 + xp_114_0 + xp_95_0 + xp_83_0
 + xp_81_0 + xp_70_0 + xp_68_1 + xp_58_1 + xp_53_0 + xp_48_1 + xp_45_0
 + xp_34_0 + xp_18_0 <= 40000
 r_7: + xp_112_1 + xp_111_1 + xp_104_0 + xp_88_0 + xp_82_0 + xp_81_1
 + xp_78_2 + xp_50_1 + xp_44_0 + xp_27_0 + xp_18_1 + xp_3_1
 <= 37505.502567865
 r_8: + xp_131_2 + xp_131_1 + xp_127_1 + xp_126_3 + xp_126_1 + xp_120_2
 + xp_120_0 + xp_118_0 + xp_103_0 + xp_90_1 + xp_77_1 + xp_71_0
 + xp_61_1 + xp_55_0 + xp_42_2 + xp_42_1 + xp_32_0 + xp_24_0 + xp_1_1
 <= 38394.8497854077
 r_9: + xp_131_0 + xp_127_0 + xp_122_0 + xp_120_1 + xp_108_2 + xp_78_3
 + xp_77_0 + xp_67_1 + xp_57_1 + xp_42_0 + xp_33_0 + xp_24_1 <= 40000
 r_10: + xp_112_2 + xp_112_1 + xp_111_1 + xp_106_0 + xp_99_0 + xp_98_0
 + xp_88_0 + xp_86_0 + xp_85_0 + xp_78_2 + xp_50_1 + xp_26_0 + xp_24_0
 + xp_8_0 + xp_7_0 + xp_3_1 + xp_2_0 <= 40000
 r_11: + xp_119_0 + xp_112_0 + xp_111_0 + xp_95_0 + xp_81_0 + xp_78_3
 + xp_78_1 + xp_78_0 + xp_59_0 + xp_53_0 + xp_50_0 + xp_49_0 + xp_45_0
 + xp_34_0 + xp_18_0 + xp_4_0 + xp_3_0 <= 36974.2913645353
 r_12: + xp_129_0 + xp_128_0 + xp_123_0 + xp_117_0 + xp_112_2 + xp_112_1
 + xp_111_1 + xp_108_1 + xp_101_0 + xp_91_1 + xp_82_0 + xp_81_1
 + xp_80_1 + xp_79_1 + xp_78_2 + xp_78_0 + xp_73_0 + xp_63_1 + xp_60_0
 + xp_50_1 + xp_46_0 + xp_44_0 + xp_40_2 + xp_40_0 + xp_18_1 + xp_17_1
 + xp_15_0 + xp_14_1 + xp_13_0 + xp_9_0 <= 36485.5286473715
 r_13: + xp_129_1 + xp_128_1 + xp_120_2 + xp_120_1 + xp_109_1 + xp_100_0
 + xp_91_0 + xp_90_0 + xp_80_0 + xp_79_0 + xp_68_0 + xp_63_0 + xp_60_1
 + xp_40_1 + xp_34_1 + xp_31_0 + xp_30_0 + xp_17_0 + xp_13_1 + xp_9_1
 <= 36974.2913645353
 r_14: + xp_131_2 + xp_131_1 + xp_131_0 + xp_126_3 + xp_126_2 + xp_125_1
 + xp_125_0 + xp_124_0 + xp_115_1 + xp_115_0 + xp_98_1 + xp_94_0
 + xp_86_1 + xp_77_1 + xp_77_0 + xp_68_1 + xp_65_1 + xp_65_0 + xp_58_1
 + xp_56_0 + xp_51_0 + xp_48_1 + xp_41_0 + xp_38_0 + xp_35_0 + xp_24_1
 + xp_20_0 + xp_19_1 + xp_19_0 + xp_12_0 + xp_0_0 <= 37505.502567865
 r_15: + xp_131_2 + xp_131_0 + xp_126_3 + xp_126_2 + xp_125_0 + xp_124_0
 + xp_120_2 + xp_120_1 + xp_116_0 + xp_115_0 + xp_109_1 + xp_98_1
 + xp_94_0 + xp_90_0 + xp_89_0 + xp_86_1 + xp_77_1 + xp_77_0 + xp_68_1
 + xp_68_0 + xp_65_0 + xp_58_1 + xp_51_0 + xp_48_1 + xp_42_2 + xp_42_0
 + xp_38_0 + xp_36_0 + xp_28_1 + xp_24_1 + xp_19_1 + xp_12_0 + xp_11_0
 + xp_0_0 <= 36485.5286473715
 r_16: + xp_128_0 + xp_123_0 + xp_108_1 + xp_108_0 + xp_78_2 + xp_78_1
 + xp_78_0 + xp_73_0 + xp_67_0 + xp_57_0 + xp_46_0 + xp_44_0 + xp_40_0
 + xp_22_0 + xp_18_1 + xp_13_0 + xp_6_0 <= 36485.5286473715
 r_17: + xp_129_0 + xp_126_0 + xp_112_2 + xp_112_1 + xp_111_1 + xp_109_0
 + xp_97_0 + xp_91_1 + xp_90_2 + xp_81_1 + xp_80_1 + xp_79_1 + xp_63_1
 + xp_62_0 + xp_61_0 + xp_60_0 + xp_47_0 + xp_40_2 + xp_22_1 + xp_17_1
 + xp_9_0 + xp_1_0 <= 35421.6335540839
 r_18: + xp_126_1 + xp_126_0 + xp_106_0 + xp_99_0 + xp_98_0 + xp_92_0
 + xp_86_0 + xp_85_0 + xp_68_0 + xp_58_0 + xp_48_0 + xp_32_0 + xp_30_0
 + xp_26_0 + xp_24_0 + xp_5_0 + xp_2_0 <= 36974.2913645353
 r_19: + xp_131_1 + xp_125_1 + xp_116_1 + xp_115_1 + xp_110_0 + xp_108_1
 + xp_78_0 + xp_65_1 + xp_56_0 + xp_42_1 + xp_28_0 + xp_19_0 + xp_14_1
 + xp_11_1 + xp_3_0 <= 36974.2913645353
 r_20: + xp_129_1 + xp_128_1 + xp_119_0 + xp_112_0 + xp_111_0 + xp_108_2
 + xp_108_0 + xp_107_0 + xp_95_0 + xp_91_0 + xp_81_0 + xp_80_0 + xp_79_0
 + xp_78_3 + xp_78_1 + xp_69_0 + xp_64_0 + xp_63_0 + xp_60_1 + xp_50_0
 + xp_49_0 + xp_45_0 + xp_40_1 + xp_18_0 + xp_17_0 + xp_14_0 + xp_13_1
 + xp_10_0 + xp_9_1 + xp_4_0 <= 35421.6335540839
 r_21: + xp_126_3 + xp_113_0 + xp_105_1 + xp_86_1 + xp_77_1 + xp_77_0
 + xp_65_1 + xp_65_0 + xp_58_1 + xp_48_1 + xp_38_0 + xp_20_0 + xp_0_0
 <= 37505.502567865
 r_22: + xp_126_2 + xp_124_0 + xp_105_0 + xp_98_1 + xp_94_0 + xp_83_0
 + xp_68_1 + xp_41_0 + xp_24_1 <= 37505.502567865
 r_23: + xp_128_1 + xp_128_0 + xp_117_0 + xp_112_2 + xp_112_1 + xp_111_1
 + xp_104_0 + xp_100_0 + xp_91_1 + xp_91_0 + xp_84_0 + xp_82_0 + xp_81_1
 + xp_80_1 + xp_80_0 + xp_79_1 + xp_79_0 + xp_78_2 + xp_73_0 + xp_60_1
 + xp_60_0 + xp_50_1 + xp_46_0 + xp_44_0 + xp_40_2 + xp_40_1 + xp_40_0
 + xp_34_1 + xp_21_0 + xp_18_1 + xp_15_0 + xp_9_1 + xp_9_0 + xp_3_1
 <= 37505.502567865
 r_24: + xp_128_0 + xp_126_3 + xp_126_1 + xp_103_0 + xp_90_1 + xp_61_1
 + xp_40_0 + xp_39_0 + xp_22_0 + xp_18_1 + xp_13_0 + xp_1_1 <= 40000
 r_25: + xp_131_0 + xp_127_0 + xp_126_2 + xp_126_0 + xp_120_1 + xp_94_0
 + xp_90_2 + xp_90_0 + xp_89_0 + xp_77_0 + xp_74_0 + xp_61_0 + xp_42_0
 + xp_38_0 + xp_24_1 + xp_12_0 + xp_1_0 <= 36485.5286473715
 r_26: + xp_128_1 + xp_121_0 + xp_112_2 + xp_112_1 + xp_112_0 + xp_108_2
 + xp_107_0 + xp_81_1 + xp_81_0 + xp_79_1 + xp_79_0 + xp_78_3 + xp_67_1
 + xp_64_0 + xp_60_1 + xp_60_0 + xp_57_1 + xp_47_0 + xp_40_2 + xp_40_1
 + xp_37_0 + xp_29_0 + xp_25_0 + xp_22_1 + xp_18_0 + xp_17_1 + xp_17_0
 + xp_13_1 + xp_4_0 <= 35421.6335540839
 r_27: + xp_131_2 + xp_127_1 + xp_126_3 + xp_125_0 + xp_120_2 + xp_116_0
 + xp_115_0 + xp_108_0 + xp_98_1 + xp_86_1 + xp_78_1 + xp_77_1 + xp_72_0
 + xp_67_0 + xp_65_0 + xp_58_1 + xp_57_0 + xp_52_0 + xp_50_0 + xp_48_1
 + xp_42_2 + xp_28_1 + xp_23_0 + xp_19_1 + xp_14_0 + xp_11_0
 <= 35421.6335540839
 r_28: + xp_131_1 + xp_126_1 + xp_126_0 + xp_125_1 + xp_120_0 + xp_116_1
 + xp_115_1 + xp_109_0 + xp_99_0 + xp_98_0 + xp_96_0 + xp_92_0 + xp_90_2
 + xp_90_1 + xp_86_0 + xp_85_0 + xp_75_0 + xp_65_1 + xp_58_0 + xp_54_0
 + xp_48_0 + xp_42_1 + xp_32_0 + xp_28_0 + xp_26_0 + xp_24_0 + xp_19_0
 + xp_11_1 <= 35421.6335540839
 r_29: + xp_129_1 + xp_129_0 + xp_95_0 + xp_93_0 + xp_87_0 + xp_71_0
 + xp_62_0 + xp_49_0 + xp_45_0 + xp_10_0 + xp_9_1 + xp_9_0 + xp_1_1
 + xp_1_0 <= 35421.6335540839
 r_30: + xp_125_1 + xp_125_0 + xp_121_0 + xp_102_0 + xp_99_0 + xp_96_0
 + xp_92_0 + xp_57_1 + xp_57_0 + xp_37_0 + xp_26_0 + xp_23_0 + xp_11_1
 + xp_11_0 <= 35421.6335540839

Bounds
 0 <= xp_0_0 <= 235.720109178105
 0 <= xp_1_0 <= 156.331532902638
 0 <= xp_1_1 <= 26.0552554837729
 0 <= xp_2_0 <= 114.897092322847
 0 <= xp_3_0 <= 156.105783396641
 0 <= xp_3_1 <= 26.0176305661068
 0 <= xp_4_0 <= 788.082119204675
 0 <= xp_5_0 <= 1082.2713504359
 0 <= xp_6_0 <= 1790.09011402937
 0 <= xp_7_0 <= 637.629479687365
 0 <= xp_8_0 <= 1508.21363710438
 0 <= xp_9_0 <= 61.7801148077331
 0 <= xp_9_1 <= 46.3350861057998
 0 <= xp_10_0 <= 54.7818801218389
 0 <= xp_11_0 <= 35.5555471944627
 0 <= xp_11_1 <= 5.92592453241045
 0 <= xp_12_0 <= 2065.05301233321
 0 <= xp_13_0 <= 215.76009035624
 0 <= xp_13_1 <= 35.9600150593733
 0 <= xp_14_0 <= 94.1657626888271
 0 <= xp_14_1 <= 125.554350251769
 0 <= xp_15_0 <= 506.600703915178
 0 <= xp_16_0 <= 2638.28744543505
 0 <= xp_17_0 <= 169.575503921104
 0 <= xp_17_1 <= 127.181627940828
 0 <= xp_18_0 <= 204.942926527236
 0 <= xp_18_1 <= 153.707194895427
 0 <= xp_19_0 <= 604.331427552868
 0 <= xp_19_1 <= 453.248570664651
 0 <= xp_20_0 <= 128.131657111897
 0 <= xp_21_0 <= 274.238618638773
 0 <= xp_22_0 <= 703.397835767704
 0 <= xp_22_1 <= 527.548376825778
 0 <= xp_23_0 <= 51.950605067465
 0 <= xp_24_0 <= 194.483199416061
 0 <= xp_24_1 <= 145.862399562046
 0 <= xp_25_0 <= 578.304390757345
 0 <= xp_26_0 <= 15.3415601783515
 0 <= xp_27_0 <= 337.646011135564
 0 <= xp_28_0 <= 381.140415957574
 0 <= xp_28_1 <= 285.85531196818
 0 <= xp_29_0 <= 2446.0899597672
 0 <= xp_30_0 <= 183.242755263314
 0 <= xp_31_0 <= 190.485551914038
 0 <= xp_32_0 <= 2249.67848332075
 0 <= xp_33_0 <= 8054.45078084637
 0 <= xp_34_0 <= 364.679514478656
 0 <= xp_34_1 <= 145.871805791462
 0 <= xp_35_0 <= 260.872366637891
 0 <= xp_36_0 <= 318.748896237767
 0 <= xp_37_0 <= 364.64188956099
 0 <= xp_38_0 <= 334.617205263444
 0 <= xp_39_0 <= 1572.47699647807
 0 <= xp_40_0 <= 484.947563798339
 0 <= xp_40_1 <= 242.473781899169
 0 <= xp_40_2 <= 121.236890949585
 0 <= xp_41_0 <= 79.8682939757098
 0 <= xp_42_0 <= 324.232727987601
 0 <= xp_42_1 <= 64.8465455975201
 0 <= xp_42_2 <= 64.8465455975201
 0 <= xp_43_0 <= 491.785892584152
 0 <= xp_44_0 <= 458.337340778991
 0 <= xp_45_0 <= 42.5349694215239
 0 <= xp_46_0 <= 1604.67451977084
 0 <= xp_47_0 <= 878.485390126892
 0 <= xp_48_0 <= 2489.96061376587
 0 <= xp_48_1 <= 414.993435627646
 0 <= xp_49_0 <= 88.0329011092531
 0 <= xp_50_0 <= 559.952837165705
 0 <= xp_50_1 <= 223.981134866282
 0 <= xp_51_0 <= 709.2014793177
 0 <= xp_52_0 <= 662.057457482079
 0 <= xp_53_0 <= 189.827115854881
 0 <= xp_54_0 <= 3691.65345287397
 0 <= xp_55_0 <= 1184.59231402885
 0 <= xp_56_0 <= 95.7366030013867
 0 <= xp_57_0 <= 176.536113689332
 0 <= xp_57_1 <= 29.4226856148887
 0 <= xp_58_0 <= 3895.08197646514
 0 <= xp_58_1 <= 649.180329410857
 0 <= xp_59_0 <= 10639.0756874602
 0 <= xp_60_0 <= 290.370302088112
 0 <= xp_60_1 <= 387.16040278415
 0 <= xp_61_0 <= 1382.22660029945
 0 <= xp_61_1 <= 1036.66995022458
 0 <= xp_62_0 <= 131.160462984018
 0 <= xp_63_0 <= 94.1093253123279
 0 <= xp_63_1 <= 37.6437301249312
 0 <= xp_64_0 <= 993.909231297064
 0 <= xp_65_0 <= 447.548395638237
 0 <= xp_65_1 <= 74.5913992730395
 0 <= xp_66_0 <= 1679.20948166738
 0 <= xp_67_0 <= 231.092244305175
 0 <= xp_67_1 <= 173.319183228881
 0 <= xp_68_0 <= 1051.89863564994
 0 <= xp_68_1 <= 420.759454259975
 0 <= xp_69_0 <= 1717.79383473396
 0 <= xp_70_0 <= 631.374337125376
 0 <= xp_71_0 <= 70.8477199652627
 0 <= xp_72_0 <= 598.781752197118
 0 <= xp_73_0 <= 922.600606090392
 0 <= xp_74_0 <= 952.822821205685
 0 <= xp_75_0 <= 1763.22592281577
 0 <= xp_76_0 <= 1721.34938945341
 0 <= xp_77_0 <= 490.215052271592
 0 <= xp_77_1 <= 81.7025087119321
 0 <= xp_78_0 <= 3997.35590891101
 0 <= xp_78_1 <= 3997.35590891101
 0 <= xp_78_2 <= 11992.067726733
 0 <= xp_78_3 <= 7994.71181782203
 0 <= xp_79_0 <= 608.695918002135
 0 <= xp_79_1 <= 456.521938501601
 0 <= xp_80_0 <= 128.82771808872
 0 <= xp_80_1 <= 96.62078856654
 0 <= xp_81_0 <= 223.604885689621
 0 <= xp_81_1 <= 37.2674809482702
 0 <= xp_82_0 <= 219.785956546512
 0 <= xp_83_0 <= 503.83527246672
 0 <= xp_84_0 <= 890.008021162134
 0 <= xp_85_0 <= 408.691261918574
 0 <= xp_86_0 <= 122.469107003149
 0 <= xp_86_1 <= 48.9876428012597
 0 <= xp_87_0 <= 141.300378295031
 0 <= xp_88_0 <= 425.283850609323
 0 <= xp_89_0 <= 2221.16820195927
 0 <= xp_90_0 <= 12403.9194817356
 0 <= xp_90_1 <= 6201.95974086778
 0 <= xp_90_2 <= 3100.97987043389
 0 <= xp_91_0 <= 1166.53235354912
 0 <= xp_91_1 <= 1555.37647139883
 0 <= xp_92_0 <= 66.8971036103224
 0 <= xp_93_0 <= 130.502026924861
 0 <= xp_94_0 <= 237.168668508249
 0 <= xp_95_0 <= 61.366240713406
 0 <= xp_96_0 <= 115.489684776088
 0 <= xp_97_0 <= 527.802345020024
 0 <= xp_98_0 <= 122.694856509146
 0 <= xp_98_1 <= 20.4491427515243
 0 <= xp_99_0 <= 16.3950578730023
 0 <= xp_100_0 <= 503.637741648973
 0 <= xp_101_0 <= 250.205702479552
 0 <= xp_102_0 <= 75.0617107438657
 0 <= xp_103_0 <= 1441.71159512955
 0 <= xp_104_0 <= 132.082273466837
 0 <= xp_105_0 <= 1244.4441518062
 0 <= xp_105_1 <= 207.407358634366
 0 <= xp_106_0 <= 41.4814717268732
 0 <= xp_107_0 <= 450.370264463194
 0 <= xp_108_0 <= 121.462640455581
 0 <= xp_108_1 <= 364.387921366744
 0 <= xp_108_2 <= 364.387921366744
 0 <= xp_109_0 <= 414.871154645231
 0 <= xp_109_1 <= 553.161539526974
 0 <= xp_110_0 <= 133.399145585151
 0 <= xp_111_0 <= 2510.56025618806
 0 <= xp_111_1 <= 418.426709364677
 0 <= xp_112_0 <= 3348.47657884148
 0 <= xp_112_1 <= 669.695315768297
 0 <= xp_112_2 <= 669.695315768297
 0 <= xp_113_0 <= 426.008130274396
 0 <= xp_114_0 <= 2401.18462053272
 0 <= xp_115_0 <= 158.024654197612
 0 <= xp_115_1 <= 63.2098616790448
 0 <= xp_116_0 <= 91.3909250109523
 0 <= xp_116_1 <= 68.5431937582142
 0 <= xp_117_0 <= 1946.00777283768
 0 <= xp_118_0 <= 3159.17621183393
 0 <= xp_119_0 <= 62.8806436494665
 0 <= xp_120_0 <= 1551.93379143238
 0 <= xp_120_1 <= 310.386758286476
 0 <= xp_120_2 <= 310.386758286476
 0 <= xp_121_0 <= 75.6543031971068
 0 <= xp_122_0 <= 2277.99123386449
 0 <= xp_123_0 <= 514.567780230974
 0 <= xp_124_0 <= 137.876510787417
 0 <= xp_125_0 <= 15.6143408314307
 0 <= xp_125_1 <= 11.710755623573
 0 <= xp_126_0 <= 3630.71989871372
 0 <= xp_126_1 <= 7261.43979742744
 0 <= xp_126_2 <= 10892.1596961412
 0 <= xp_126_3 <= 3630.71989871372
 0 <= xp_127_0 <= 412.604253355848
 0 <= xp_127_1 <= 165.041701342339
 0 <= xp_128_0 <= 290.51139552936
 0 <= xp_128_1 <= 116.204558211744
 0 <= xp_129_0 <= 21.0229227459323
 0 <= xp_129_1 <= 28.0305636612431
 0 <= xp_130_0 <= 404.213896716309
 0 <= xp_131_0 <= 219.673081793514
 0 <= xp_131_1 <= 329.509622690271
 0 <= xp_131_2 <= 219.673081793514

End
